p cnf 412 698
70 32 -69 76 0
70 32 -69 -76 0
-30 -4 -64 77 0
-30 -4 -64 -77 0
26 27 58 78 0
26 27 58 -78 0
35 -50 -11 79 0
35 -50 -11 -79 0
-75 -15 -34 80 0
-75 -15 -34 -80 0
-67 62 14 81 0
-67 62 14 -81 0
-53 -49 -29 82 0
-53 -49 -29 -82 0
30 68 -20 83 0
30 68 -20 -83 0
-31 -42 17 84 0
-31 -42 17 -84 0
-27 45 15 85 0
-27 45 15 -85 0
-44 18 68 86 0
-44 18 68 -86 0
8 55 61 87 0
8 55 61 -87 0
-30 -50 20 88 0
-30 -50 20 -88 0
17 -19 67 89 0
17 -19 67 -89 0
-34 -12 6 90 0
-34 -12 6 -90 0
-55 41 -50 91 0
-55 41 -50 -91 0
-59 -30 -31 92 0
-59 -30 -31 -92 0
72 -21 26 93 0
72 -21 26 -93 0
42 -12 33 94 0
42 -12 33 -94 0
71 -3 28 95 0
71 -3 28 -95 0
34 31 66 96 0
34 31 66 -96 0
60 62 43 97 0
60 62 43 -97 0
67 -27 -55 98 0
67 -27 -55 -98 0
-32 -9 61 99 0
-32 -9 61 -99 0
5 -37 33 100 0
5 -37 33 -100 0
-58 71 -40 101 0
-58 71 -40 -101 0
61 64 -29 102 0
61 64 -29 -102 0
-62 71 -12 103 0
-62 71 -12 -103 0
-15 45 62 104 0
-15 45 62 -104 0
-30 -39 66 105 0
-30 -39 66 -105 0
72 54 25 106 0
72 54 25 -106 0
3 -12 17 107 0
3 -12 17 -107 0
15 -25 17 108 0
15 -25 17 -108 0
5 1 66 109 0
5 1 66 -109 0
34 -72 -10 110 0
34 -72 -10 -110 0
-18 -47 62 111 0
-18 -47 62 -111 0
56 -9 -32 112 0
56 -9 -32 -112 0
-26 -73 69 113 0
-26 -73 69 -113 0
-56 -67 -25 114 0
-56 -67 -25 -114 0
66 -30 -55 115 0
66 -30 -55 -115 0
39 -68 20 116 0
39 -68 20 -116 0
41 -26 -72 117 0
41 -26 -72 -117 0
-63 -71 -43 118 0
-63 -71 -43 -118 0
-19 -49 -16 119 0
-19 -49 -16 -119 0
-57 -74 54 120 0
-57 -74 54 -120 0
-21 42 -45 121 0
-21 42 -45 -121 0
12 -38 13 122 0
12 -38 13 -122 0
58 62 -6 123 0
58 62 -6 -123 0
17 44 37 124 0
17 44 37 -124 0
30 -16 -5 125 0
30 -16 -5 -125 0
34 -18 20 126 0
34 -18 20 -126 0
66 1 -70 127 0
66 1 -70 -127 0
13 68 56 128 0
13 68 56 -128 0
-7 -34 50 129 0
-7 -34 50 -129 0
-50 20 24 130 0
-50 20 24 -130 0
-32 -62 38 131 0
-32 -62 38 -131 0
9 -55 28 132 0
9 -55 28 -132 0
-72 70 -30 133 0
-72 70 -30 -133 0
59 -19 -5 134 0
59 -19 -5 -134 0
-41 36 -15 135 0
-41 36 -15 -135 0
-10 47 28 136 0
-10 47 28 -136 0
74 31 -73 137 0
74 31 -73 -137 0
64 31 -49 138 0
64 31 -49 -138 0
-66 67 -5 139 0
-66 67 -5 -139 0
-65 -27 -5 140 0
-65 -27 -5 -140 0
63 13 74 141 0
63 13 74 -141 0
-34 66 -14 142 0
-34 66 -14 -142 0
-49 -54 41 143 0
-49 -54 41 -143 0
-58 53 31 144 0
-58 53 31 -144 0
-43 -67 48 145 0
-43 -67 48 -145 0
18 -33 -26 146 0
18 -33 -26 -146 0
-33 27 -51 147 0
-33 27 -51 -147 0
39 -60 -53 148 0
39 -60 -53 -148 0
-30 35 17 149 0
-30 35 17 -149 0
-7 56 -10 150 0
-7 56 -10 -150 0
68 -46 13 151 0
68 -46 13 -151 0
-3 -21 -32 152 0
-3 -21 -32 -152 0
52 30 28 153 0
52 30 28 -153 0
68 -64 -40 154 0
68 -64 -40 -154 0
27 55 -33 155 0
27 55 -33 -155 0
17 -26 31 156 0
17 -26 31 -156 0
-35 47 38 157 0
-35 47 38 -157 0
-34 1 59 158 0
-34 1 59 -158 0
65 21 -5 159 0
65 21 -5 -159 0
-7 57 -33 160 0
-7 57 -33 -160 0
-24 -35 -18 161 0
-24 -35 -18 -161 0
72 23 -32 162 0
72 23 -32 -162 0
-63 47 57 163 0
-63 47 57 -163 0
-64 -22 -32 164 0
-64 -22 -32 -164 0
47 58 -43 165 0
47 58 -43 -165 0
71 46 21 166 0
71 46 21 -166 0
74 -21 -32 167 0
74 -21 -32 -167 0
-12 43 -17 168 0
-12 43 -17 -168 0
4 -3 -71 169 0
4 -3 -71 -169 0
-22 -43 -30 170 0
-22 -43 -30 -170 0
-50 -43 -21 171 0
-50 -43 -21 -171 0
4 55 -66 172 0
4 55 -66 -172 0
6 22 14 173 0
6 22 14 -173 0
-71 -19 30 174 0
-71 -19 30 -174 0
-38 -1 -67 175 0
-38 -1 -67 -175 0
-43 40 -6 176 0
-43 40 -6 -176 0
34 -39 -41 177 0
34 -39 -41 -177 0
69 5 72 178 0
69 5 72 -178 0
-35 23 30 179 0
-35 23 30 -179 0
14 -52 11 180 0
14 -52 11 -180 0
-44 -11 41 181 0
-44 -11 41 -181 0
36 -32 -39 182 0
36 -32 -39 -182 0
-52 -50 -43 183 0
-52 -50 -43 -183 0
59 16 14 184 0
59 16 14 -184 0
18 -6 34 185 0
18 -6 34 -185 0
-66 -59 -75 186 0
-66 -59 -75 -186 0
2 -15 39 187 0
2 -15 39 -187 0
55 45 44 188 0
55 45 44 -188 0
11 -42 53 189 0
11 -42 53 -189 0
49 63 -12 190 0
49 63 -12 -190 0
-41 -1 44 191 0
-41 -1 44 -191 0
39 -43 42 192 0
39 -43 42 -192 0
-4 -24 6 193 0
-4 -24 6 -193 0
-9 62 -73 194 0
-9 62 -73 -194 0
69 -60 -30 195 0
69 -60 -30 -195 0
66 -33 40 196 0
66 -33 40 -196 0
61 36 48 197 0
61 36 48 -197 0
64 41 69 198 0
64 41 69 -198 0
21 4 -24 199 0
21 4 -24 -199 0
-1 -21 -6 200 0
-1 -21 -6 -200 0
24 25 31 201 0
24 25 31 -201 0
56 2 43 202 0
56 2 43 -202 0
-59 60 -25 203 0
-59 60 -25 -203 0
16 5 -74 204 0
16 5 -74 -204 0
24 21 -11 205 0
24 21 -11 -205 0
-26 -36 -21 206 0
-26 -36 -21 -206 0
-73 -37 -52 207 0
-73 -37 -52 -207 0
72 38 -55 208 0
72 38 -55 -208 0
-72 -49 61 209 0
-72 -49 61 -209 0
-61 -21 -26 210 0
-61 -21 -26 -210 0
67 -1 -74 211 0
67 -1 -74 -211 0
-62 54 -16 212 0
-62 54 -16 -212 0
34 -16 -14 213 0
34 -16 -14 -213 0
33 41 -55 214 0
33 41 -55 -214 0
14 59 -12 215 0
14 59 -12 -215 0
1 35 48 216 0
1 35 48 -216 0
-75 71 -43 217 0
-75 71 -43 -217 0
72 -30 -71 218 0
72 -30 -71 -218 0
-4 -24 -28 219 0
-4 -24 -28 -219 0
-44 -65 48 220 0
-44 -65 48 -220 0
29 75 -41 221 0
29 75 -41 -221 0
-28 -12 -52 222 0
-28 -12 -52 -222 0
34 -47 21 223 0
34 -47 21 -223 0
-17 -61 34 224 0
-17 -61 34 -224 0
34 -13 -75 225 0
34 -13 -75 -225 0
-12 22 72 226 0
-12 22 72 -226 0
34 -51 -21 227 0
34 -51 -21 -227 0
1 5 42 228 0
1 5 42 -228 0
-32 50 -8 229 0
-32 50 -8 -229 0
-1 -52 -64 230 0
-1 -52 -64 -230 0
-73 -70 2 231 0
-73 -70 2 -231 0
4 6 -75 232 0
4 6 -75 -232 0
-18 16 49 233 0
-18 16 49 -233 0
7 -69 58 234 0
7 -69 58 -234 0
-66 -59 53 235 0
-66 -59 53 -235 0
35 -56 31 236 0
35 -56 31 -236 0
-60 53 8 237 0
-60 53 8 -237 0
29 19 -39 238 0
29 19 -39 -238 0
-11 10 -68 239 0
-11 10 -68 -239 0
-68 -15 35 240 0
-68 -15 35 -240 0
7 -28 -73 241 0
7 -28 -73 -241 0
-39 49 26 242 0
-39 49 26 -242 0
68 -62 -46 243 0
68 -62 -46 -243 0
31 -75 59 244 0
31 -75 59 -244 0
74 60 22 245 0
74 60 22 -245 0
-51 -37 43 246 0
-51 -37 43 -246 0
-22 36 -6 247 0
-22 36 -6 -247 0
-75 74 26 248 0
-75 74 26 -248 0
19 59 15 249 0
19 59 15 -249 0
10 -6 66 250 0
10 -6 66 -250 0
46 -15 -57 251 0
46 -15 -57 -251 0
-45 -9 15 252 0
-45 -9 15 -252 0
-14 55 -19 253 0
-14 55 -19 -253 0
-54 -44 31 254 0
-54 -44 31 -254 0
-74 55 43 255 0
-74 55 43 -255 0
-11 -56 21 256 0
-11 -56 21 -256 0
-47 38 -17 257 0
-47 38 -17 -257 0
7 -26 53 258 0
7 -26 53 -258 0
72 43 46 259 0
72 43 46 -259 0
66 34 70 260 0
66 34 70 -260 0
-40 34 -61 261 0
-40 34 -61 -261 0
69 -73 17 262 0
69 -73 17 -262 0
-8 66 -55 263 0
-8 66 -55 -263 0
62 -13 -11 264 0
62 -13 -11 -264 0
-47 -31 5 265 0
-47 -31 5 -265 0
47 28 62 266 0
47 28 62 -266 0
11 -7 -28 267 0
11 -7 -28 -267 0
24 61 36 268 0
24 61 36 -268 0
-70 -14 -26 269 0
-70 -14 -26 -269 0
-10 64 40 270 0
-10 64 40 -270 0
-26 3 -45 271 0
-26 3 -45 -271 0
-45 27 -7 272 0
-45 27 -7 -272 0
9 7 23 273 0
9 7 23 -273 0
12 22 41 274 0
12 22 41 -274 0
36 11 14 275 0
36 11 14 -275 0
-12 -34 -32 276 0
-12 -34 -32 -276 0
-36 41 74 277 0
-36 41 74 -277 0
-31 -35 27 278 0
-31 -35 27 -278 0
-5 64 -57 279 0
-5 64 -57 -279 0
70 -61 69 280 0
70 -61 69 -280 0
-38 -73 35 281 0
-38 -73 35 -281 0
-41 -15 73 282 0
-41 -15 73 -282 0
-59 14 -11 283 0
-59 14 -11 -283 0
-72 -24 27 284 0
-72 -24 27 -284 0
-37 34 3 285 0
-37 34 3 -285 0
7 -18 -39 286 0
7 -18 -39 -286 0
42 -11 68 287 0
42 -11 68 -287 0
-65 -6 75 288 0
-65 -6 75 -288 0
-45 69 58 289 0
-45 69 58 -289 0
6 -73 65 290 0
6 -73 65 -290 0
-13 -50 27 291 0
-13 -50 27 -291 0
-47 17 32 292 0
-47 17 32 -292 0
-56 11 30 293 0
-56 11 30 -293 0
-15 -56 -22 294 0
-15 -56 -22 -294 0
28 -58 55 295 0
28 -58 55 -295 0
-26 -4 -72 296 0
-26 -4 -72 -296 0
74 -27 64 297 0
74 -27 64 -297 0
55 47 21 298 0
55 47 21 -298 0
-37 41 -12 299 0
-37 41 -12 -299 0
40 65 45 300 0
40 65 45 -300 0
-42 32 39 301 0
-42 32 39 -301 0
-11 8 46 302 0
-11 8 46 -302 0
9 18 8 303 0
9 18 8 -303 0
-61 -64 75 304 0
-61 -64 75 -304 0
61 12 26 305 0
61 12 26 -305 0
66 74 -64 306 0
66 74 -64 -306 0
-48 -4 -18 307 0
-48 -4 -18 -307 0
56 59 62 308 0
56 59 62 -308 0
-72 -75 -20 309 0
-72 -75 -20 -309 0
54 58 -7 310 0
54 58 -7 -310 0
74 -13 27 311 0
74 -13 27 -311 0
1 -22 -27 312 0
1 -22 -27 -312 0
-73 -49 -52 313 0
-73 -49 -52 -313 0
5 -55 62 314 0
5 -55 62 -314 0
5 27 15 315 0
5 27 15 -315 0
-49 -34 41 316 0
-49 -34 41 -316 0
-23 63 37 317 0
-23 63 37 -317 0
43 -4 -3 318 0
43 -4 -3 -318 0
-7 68 41 319 0
-7 68 41 -319 0
-25 21 -39 320 0
-25 21 -39 -320 0
69 5 32 321 0
69 5 32 -321 0
49 27 6 322 0
49 27 6 -322 0
-40 -44 16 323 0
-40 -44 16 -323 0
-28 -70 71 324 0
-28 -70 71 -324 0
-5 -13 -33 325 0
-5 -13 -33 -325 0
-42 45 -69 326 0
-42 45 -69 -326 0
17 -53 25 327 0
17 -53 25 -327 0
-33 -27 -70 328 0
-33 -27 -70 -328 0
-51 20 -53 329 0
-51 20 -53 -329 0
59 -17 53 330 0
59 -17 53 -330 0
-6 28 74 331 0
-6 28 74 -331 0
72 -42 -56 332 0
72 -42 -56 -332 0
-48 -21 -70 333 0
-48 -21 -70 -333 0
25 44 8 334 0
25 44 8 -334 0
42 75 37 335 0
42 75 37 -335 0
-48 21 -49 336 0
-48 21 -49 -336 0
50 16 41 337 0
50 16 41 -337 0
-73 -10 -49 338 0
-73 -10 -49 -338 0
-55 1 10 339 0
-55 1 10 -339 0
-7 -45 -25 340 0
-7 -45 -25 -340 0
64 37 61 341 0
64 37 61 -341 0
37 57 -20 342 0
37 57 -20 -342 0
30 10 -67 343 0
30 10 -67 -343 0
-44 -57 54 344 0
-44 -57 54 -344 0
49 16 -29 345 0
49 16 -29 -345 0
-5 -41 -53 346 0
-5 -41 -53 -346 0
3 -30 -2 347 0
3 -30 -2 -347 0
-35 51 38 348 0
-35 51 38 -348 0
34 61 -60 349 0
34 61 -60 -349 0
-51 -48 18 350 0
-51 -48 18 -350 0
71 -16 -64 351 0
71 -16 -64 -351 0
-41 -19 48 352 0
-41 -19 48 -352 0
-4 36 7 353 0
-4 36 7 -353 0
47 -46 -10 354 0
47 -46 -10 -354 0
-21 22 -14 355 0
-21 22 -14 -355 0
49 -9 -6 356 0
49 -9 -6 -356 0
-7 -12 -13 357 0
-7 -12 -13 -357 0
10 60 -32 358 0
10 60 -32 -358 0
-41 73 -15 359 0
-41 73 -15 -359 0
17 50 8 360 0
17 50 8 -360 0
20 61 -29 361 0
20 61 -29 -361 0
19 29 -11 362 0
19 29 -11 -362 0
-28 17 51 363 0
-28 17 51 -363 0
-29 74 44 364 0
-29 74 44 -364 0
65 3 -37 365 0
65 3 -37 -365 0
-39 2 10 366 0
-39 2 10 -366 0
-8 -52 20 367 0
-8 -52 20 -367 0
-67 1 -63 368 0
-67 1 -63 -368 0
-6 32 62 369 0
-6 32 62 -369 0
-3 69 17 370 0
-3 69 17 -370 0
20 -52 -33 371 0
20 -52 -33 -371 0
-40 48 33 372 0
-40 48 33 -372 0
-71 -3 -17 373 0
-71 -3 -17 -373 0
46 59 6 374 0
46 59 6 -374 0
-47 -35 4 375 0
-47 -35 4 -375 0
-20 -19 68 376 0
-20 -19 68 -376 0
-34 -13 5 377 0
-34 -13 5 -377 0
7 -67 -18 378 0
7 -67 -18 -378 0
73 -21 55 379 0
73 -21 55 -379 0
13 25 -46 380 0
13 25 -46 -380 0
33 63 -25 381 0
33 63 -25 -381 0
44 -48 61 382 0
44 -48 61 -382 0
-41 36 18 383 0
-41 36 18 -383 0
-61 31 69 384 0
-61 31 69 -384 0
1 -33 51 385 0
1 -33 51 -385 0
-49 2 -7 386 0
-49 2 -7 -386 0
-55 56 -14 387 0
-55 56 -14 -387 0
-42 -56 18 388 0
-42 -56 18 -388 0
-74 30 -58 389 0
-74 30 -58 -389 0
-72 20 -24 390 0
-72 20 -24 -390 0
-67 10 70 391 0
-67 10 70 -391 0
-41 63 62 392 0
-41 63 62 -392 0
-37 -71 57 393 0
-37 -71 57 -393 0
-7 -53 -56 394 0
-7 -53 -56 -394 0
56 41 -18 395 0
56 41 -18 -395 0
-72 5 -64 396 0
-72 5 -64 -396 0
-74 44 60 397 0
-74 44 60 -397 0
-62 -59 -9 398 0
-62 -59 -9 -398 0
-69 45 42 399 0
-69 45 42 -399 0
-48 15 -51 400 0
-48 15 -51 -400 0
401 402 403 404 0
401 402 403 -404 0
401 402 -403 404 0
401 402 -403 -404 0
401 -402 403 404 0
401 -402 403 -404 0
401 -402 -403 404 0
401 -402 -403 -404 0
-401 402 403 404 0
-401 402 403 -404 0
-401 402 -403 404 0
-401 402 -403 -404 0
-401 -402 403 404 0
-401 -402 403 -404 0
-401 -402 -403 404 0
-401 -402 -403 -404 0
405 406 407 408 0
405 406 407 -408 0
405 406 -407 408 0
405 406 -407 -408 0
405 -406 407 408 0
405 -406 407 -408 0
405 -406 -407 408 0
405 -406 -407 -408 0
-405 406 407 408 0
-405 406 407 -408 0
-405 406 -407 408 0
-405 406 -407 -408 0
-405 -406 407 408 0
-405 -406 407 -408 0
-405 -406 -407 408 0
-405 -406 -407 -408 0
409 410 411 412 0
409 410 411 -412 0
409 410 -411 412 0
409 410 -411 -412 0
409 -410 411 412 0
409 -410 411 -412 0
409 -410 -411 412 0
409 -410 -411 -412 0
-409 410 411 412 0
-409 410 411 -412 0
-409 410 -411 412 0
-409 410 -411 -412 0
-409 -410 411 412 0
-409 -410 411 -412 0
-409 -410 -411 412 0
-409 -410 -411 -412 0
